0001 18
0002 14
0003 1
0004 2
0005 2
0006 4
0007 13
0008 3
0009 4
0010 4
0011 4
0012 4
0013 5
0014 12
0015 1
0016 6
0017 7
0018 17
0019 21
0020 21
0021 11
0022 15
0023 9
0024 5
0025 13
0026 5
0027 2
0028 7
0029 7
0030 6
0031 6
0032 9
0033 9
0034 9
0035 9
0036 9
0037 7
0038 14
0039 7
0040 19
0041 18
0042 5
0043 19
0044 9
0045 15
0046 3
0047 9
0048 9
0049 13
0050 3
0051 2
0052 11
0053 11
0054 17
0055 17
0056 16
0057 11
0058 10
0059 9
0060 9
0061 1
0062 21
0063 21
0064 4
0065 13
0066 13
0067 3
0068 16
0069 14
0070 8
0071 8
0072 8
0073 5
0074 14
0075 12
0076 15
0077 15
0078 8
0079 11
0080 11
0081 11
0082 13
0083 12
0084 7
0085 14
0086 3
0087 3
0088 1
0089 14
0090 13
0091 12
0092 5
0093 17
0094 16
0095 17
0096 1
0097 7
0098 12
0099 11
0100 7
0101 18
0102 10
0103 20
0104 6
0105 16
0106 5
0107 3
0108 2
0109 3
0110 3
0111 3
0112 1
0113 1
0114 1
0115 1
0116 20
0117 6
0118 6
0119 6
0120 15
0121 1
0122 11
0123 17
0124 6
0125 19
0126 15
0127 3
0128 17
0129 15
0130 14
0131 14
0132 14
0133 16
0134 19
0135 13
0136 19
0137 14
0138 16
0139 16
0140 12
0141 18
0142 5
0143 20
0144 20
0145 8
0146 21
0147 16
0148 8
0149 11
0150 3
0151 9
0152 19
0153 18
0154 18
0155 10
0156 10
0157 15
0158 16
0159 20
0160 16
0161 21
0162 6
0163 21
0164 3
0165 18
0166 20
0167 12
0168 19
0169 18
0170 7
0171 10
0172 15
0173 21
0174 21
0175 11
0176 16
0177 16
0178 13
0179 17
0180 17
0181 2
